NAME : rajasthan
COMMENT : list 20 tourist place in rajasthan
TYPE : TSP
DIMENSION : 20
EDGE_WEIGHT_TYPE : EUC_2D
NODE_COORD_SECTION
Jaipur 26.9124 75.7873
Udaipur 24.5854 73.7125
Jodhpur 26.2389 73.0243
Jaisalmer 26.9157 70.9083
Ajmer 26.4499 74.6399
Mount_Abu 24.5926 72.7156
Bikaner 28.0176 73.3150
Bharatpur 27.2152 77.5030
Chittorgarh 24.8829 74.6230
Bundi 25.4326 75.6483
Kota 25.2138 75.8648
Shekhawati 27.6195 75.1504
Pali 25.7781 73.3311
Sariska_Tiger_Reserve 27.3104 76.4389
Ranthambore_National_Park 26.0173 76.5026
Shakambari_Jheel 26.9261 75.0962
Neemrana 27.9797 76.3962
Bhangarh_Fort 27.0964 76.2862
Ranthambore_Fort 26.0185 76.4557
Dechu 26.7748 72.3304